YSTEM= AgBiSe2
ENCUT= 450
ISTART= 0 ; ICHARG = 2
ISMEAR=0
SIGMA=0.01
ISIF=3
#NCORE=2
NSW= 300;IBRION =2
#POTIM= 0.1
PREC=Accurate

