Ag Bi Se2
1.0
        4.1799998283         0.0000000000         0.0000000000
       -2.0899999142         3.6199860392         0.0000000000
        0.0000000000         0.0000000000        19.6700000763
   Ag   Bi   Se
    3    3    6
Direct
     0.000000000         0.000000000         0.000000000
     0.333333343         0.666666687         0.672000000
     0.666666657         0.333333313         0.328000000
     0.000000000         0.000000000         0.500000000
     0.333333343         0.666666687         0.163000000
     0.666666657         0.333333313         0.837000000
     0.000000000         0.000000000         0.253000000
     0.000000000         0.000000000         0.747000000
     0.333333343         0.666666687         0.926000000
     0.666666657         0.333333313         0.074000000
     0.333333343         0.666666687         0.406000000
     0.666666657         0.333333313         0.594000000
