Ag3 Bi3 Se6
1.0
   4.1955556885491330    0.0000000000000000    0.0000000000000000
  -2.0977778442745665    3.6334578092758614    0.0000000000000000
   0.0000000000000000    0.0000000000000000   19.8577792375655875
Ag Bi Se
3 3 6
direct
   1.0000000000000000    1.0000000000000000    1.0000000000000000 Ag
   0.6666666666666666    0.3333333333333333    0.3333333333333334 Ag
   0.3333333333333333    0.6666666666666666    0.6666666666666667 Ag
   0.9999999999999997    0.9999999999999998    0.4999999999999998 Bi
   0.6666666666666664    0.3333333333333331    0.8333333333333331 Bi
   0.3333333333333330    0.6666666666666665    0.1666666666666665 Bi
   1.0000000000000000    1.0000000000000000    0.2544082752275851 Se
   0.6666666666666666    0.3333333333333333    0.5877416085609185 Se
   0.3333333333333333    0.6666666666666666    0.9210749418942519 Se
   0.0000000000000000    1.0000000000000000    0.7455917247724150 Se
   0.6666666666666666    0.3333333333333333    0.0789250581057483 Se
   0.3333333333333333    0.6666666666666666    0.4122583914390818 Se

