Ag6 Bi6 Se12
1.0
   8.3911113770982659    0.0000000000000000    0.0000000000000000
  -2.0977778442745665    3.6334578092758614    0.0000000000000000
   0.0000000000000000    0.0000000000000000   19.8577792375655875
Ag Bi Se
6 6 12
direct
   0.5000000000000000    0.0000000000000000    0.0000000000000000 Ag
   0.0000000000000000    0.0000000000000000    0.0000000000000000 Ag
   0.3333333333333333    0.3333333333333333    0.3333333333333334 Ag
   0.8333333333333334    0.3333333333333333    0.3333333333333334 Ag
   0.1666666666666667    0.6666666666666666    0.6666666666666667 Ag
   0.6666666666666666    0.6666666666666666    0.6666666666666667 Ag
   0.4999999999999999    0.9999999999999998    0.5000000000000000 Bi
   0.9999999999999999    0.9999999999999998    0.5000000000000000 Bi
   0.3333333333333333    0.3333333333333331    0.8333333333333334 Bi
   0.8333333333333333    0.3333333333333331    0.8333333333333334 Bi
   0.1666666666666666    0.6666666666666664    0.1666666666666670 Bi
   0.6666666666666666    0.6666666666666664    0.1666666666666670 Bi
   0.5000000000000000    0.0000000000000000    0.2544082752275851 Se
   0.0000000000000000    0.0000000000000000    0.2544082752275851 Se
   0.3333333333333333    0.3333333333333333    0.5877416085609185 Se
   0.8333333333333334    0.3333333333333333    0.5877416085609185 Se
   0.1666666666666667    0.6666666666666666    0.9210749418942519 Se
   0.6666666666666666    0.6666666666666666    0.9210749418942519 Se
   0.0000000000000000    0.0000000000000000    0.7455917247724150 Se
   0.5000000000000000    0.0000000000000000    0.7455917247724150 Se
   0.3333333333333333    0.3333333333333333    0.0789250581057483 Se
   0.8333333333333334    0.3333333333333333    0.0789250581057483 Se
   0.1666666666666667    0.6666666666666666    0.4122583914390818 Se
   0.6666666666666666    0.6666666666666666    0.4122583914390818 Se
